40 232 5
0 6 1
0 8 1
0 9 1
0 10 1
0 15 1
0 16 1
0 17 1
0 18 1
0 20 1
0 22 1
0 23 1
0 27 1
0 30 1
0 31 1
0 39 1
1 7 1
1 8 1
1 10 1
1 11 1
1 13 1
1 14 1
1 15 1
1 16 1
1 19 1
1 20 1
1 22 1
1 23 1
1 26 1
1 28 1
1 29 1
1 31 1
1 33 1
1 34 1
1 36 1
1 37 1
1 39 1
2 7 1
2 8 1
2 15 1
2 18 1
2 19 1
2 20 1
2 21 1
2 27 1
2 31 1
2 35 1
2 39 1
3 8 1
3 10 1
3 13 1
3 15 1
3 18 1
3 21 1
3 24 1
3 32 1
3 39 1
4 5 1
4 9 1
4 14 1
4 16 1
4 18 1
4 19 1
4 20 1
4 25 1
5 14 1
5 18 1
5 20 1
5 26 1
5 28 1
5 34 1
5 35 1
5 38 1
5 39 1
6 9 1
6 11 1
6 13 1
6 16 1
6 17 1
6 25 1
6 26 1
6 27 1
6 28 1
6 29 1
6 35 1
6 36 1
6 37 1
6 38 1
7 9 1
7 10 1
7 17 1
7 19 1
7 20 1
7 21 1
7 23 1
7 26 1
7 31 1
7 39 1
8 11 1
8 14 1
8 15 1
8 17 1
8 19 1
8 22 1
8 25 1
8 27 1
8 28 1
8 32 1
8 36 1
8 37 1
8 39 1
9 14 1
9 25 1
9 28 1
9 35 1
10 14 1
10 28 1
10 32 1
10 36 1
10 38 1
10 39 1
11 12 1
11 15 1
11 16 1
11 17 1
11 20 1
11 22 1
11 25 1
11 26 1
11 36 1
11 39 1
12 19 1
12 21 1
12 22 1
12 25 1
12 26 1
12 27 1
12 28 1
12 29 1
12 33 1
12 35 1
12 36 1
13 14 1
13 17 1
13 23 1
13 31 1
14 16 1
14 17 1
14 18 1
14 21 1
14 29 1
14 31 1
14 32 1
14 37 1
14 39 1
15 16 1
15 24 1
15 26 1
15 30 1
15 36 1
15 37 1
16 29 1
17 19 1
17 21 1
17 22 1
17 25 1
17 31 1
18 20 1
18 25 1
18 27 1
18 34 1
18 37 1
18 39 1
19 25 1
19 28 1
19 34 1
19 36 1
20 22 1
20 27 1
20 31 1
20 33 1
20 34 1
20 35 1
20 38 1
20 39 1
21 23 1
21 26 1
21 38 1
21 39 1
22 24 1
22 27 1
22 28 1
22 32 1
22 33 1
22 34 1
23 24 1
23 27 1
23 29 1
23 31 1
23 35 1
23 37 1
24 26 1
24 27 1
24 33 1
24 37 1
25 27 1
25 30 1
25 35 1
25 37 1
26 27 1
26 30 1
27 28 1
27 31 1
27 37 1
27 38 1
27 39 1
28 30 1
28 38 1
29 34 1
29 36 1
29 39 1
30 38 1
30 39 1
31 37 1
31 39 1
32 35 1
32 37 1
32 39 1
33 37 1
34 37 1
36 38 1
36 39 1
38 39 1
5 14 28 36 39